200 10
0 79 1 79 2 79 3 79 4 79 5 79 6 79 7 79 8 79 9 79 
0 79 1 79 2 79 3 79 4 79 5 79 6 79 7 79 8 79 9 79 
0 79 1 79 2 79 3 79 4 79 5 79 6 79 7 79 8 79 9 79 
0 79 1 79 2 79 3 79 4 79 5 79 6 79 7 79 8 79 9 79 
0 79 1 79 2 79 3 79 4 79 5 79 6 79 7 79 8 79 9 79 
0 79 1 79 2 79 3 79 4 79 5 79 6 79 7 79 8 79 9 79 
0 79 1 79 2 79 3 79 4 79 5 79 6 79 7 79 8 79 9 79 
0 79 1 79 2 79 3 79 4 79 5 79 6 79 7 79 8 79 9 79 
0 79 1 79 2 79 3 79 4 79 5 79 6 79 7 79 8 79 9 79 
0 79 1 79 2 79 3 79 4 79 5 79 6 79 7 79 8 79 9 79 
0 79 1 79 2 79 3 79 4 79 5 79 6 79 7 79 8 79 9 79 
0 79 1 79 2 79 3 79 4 79 5 79 6 79 7 79 8 79 9 79 
0 79 1 79 2 79 3 79 4 79 5 79 6 79 7 79 8 79 9 79 
0 79 1 79 2 79 3 79 4 79 5 79 6 79 7 79 8 79 9 79 
0 79 1 79 2 79 3 79 4 79 5 79 6 79 7 79 8 79 9 79 
0 79 1 79 2 79 3 79 4 79 5 79 6 79 7 79 8 79 9 79 
0 79 1 79 2 79 3 79 4 79 5 79 6 79 7 79 8 79 9 79 
0 79 1 79 2 79 3 79 4 79 5 79 6 79 7 79 8 79 9 79 
0 79 1 79 2 79 3 79 4 79 5 79 6 79 7 79 8 79 9 79 
0 79 1 79 2 79 3 79 4 79 5 79 6 79 7 79 8 79 9 79 
0 79 1 79 2 79 3 79 4 79 5 79 6 79 7 79 8 79 9 79 
0 79 1 79 2 79 3 79 4 79 5 79 6 79 7 79 8 79 9 79 
0 79 1 79 2 79 3 79 4 79 5 79 6 79 7 79 8 79 9 79 
0 79 1 79 2 79 3 79 4 79 5 79 6 79 7 79 8 79 9 79 
0 79 1 79 2 79 3 79 4 79 5 79 6 79 7 79 8 79 9 79 
0 79 1 79 2 79 3 79 4 79 5 79 6 79 7 79 8 79 9 79 
0 79 1 79 2 79 3 79 4 79 5 79 6 79 7 79 8 79 9 79 
0 79 1 79 2 79 3 79 4 79 5 79 6 79 7 79 8 79 9 79 
0 79 1 79 2 79 3 79 4 79 5 79 6 79 7 79 8 79 9 79 
0 79 1 79 2 79 3 79 4 79 5 79 6 79 7 79 8 79 9 79 
0 79 1 79 2 79 3 79 4 79 5 79 6 79 7 79 8 79 9 79 
0 79 1 79 2 79 3 79 4 79 5 79 6 79 7 79 8 79 9 79 
0 79 1 79 2 79 3 79 4 79 5 79 6 79 7 79 8 79 9 79 
0 79 1 79 2 79 3 79 4 79 5 79 6 79 7 79 8 79 9 79 
0 79 1 79 2 79 3 79 4 79 5 79 6 79 7 79 8 79 9 79 
0 79 1 79 2 79 3 79 4 79 5 79 6 79 7 79 8 79 9 79 
0 79 1 79 2 79 3 79 4 79 5 79 6 79 7 79 8 79 9 79 
0 79 1 79 2 79 3 79 4 79 5 79 6 79 7 79 8 79 9 79 
0 79 1 79 2 79 3 79 4 79 5 79 6 79 7 79 8 79 9 79 
0 79 1 79 2 79 3 79 4 79 5 79 6 79 7 79 8 79 9 79 
0 79 1 79 2 79 3 79 4 79 5 79 6 79 7 79 8 79 9 79 
0 79 1 79 2 79 3 79 4 79 5 79 6 79 7 79 8 79 9 79 
0 79 1 79 2 79 3 79 4 79 5 79 6 79 7 79 8 79 9 79 
0 79 1 79 2 79 3 79 4 79 5 79 6 79 7 79 8 79 9 79 
0 79 1 79 2 79 3 79 4 79 5 79 6 79 7 79 8 79 9 79 
0 79 1 79 2 79 3 79 4 79 5 79 6 79 7 79 8 79 9 79 
0 79 1 79 2 79 3 79 4 79 5 79 6 79 7 79 8 79 9 79 
0 79 1 79 2 79 3 79 4 79 5 79 6 79 7 79 8 79 9 79 
0 79 1 79 2 79 3 79 4 79 5 79 6 79 7 79 8 79 9 79 
0 79 1 79 2 79 3 79 4 79 5 79 6 79 7 79 8 79 9 79 
0 79 1 79 2 79 3 79 4 79 5 79 6 79 7 79 8 79 9 79 
0 79 1 79 2 79 3 79 4 79 5 79 6 79 7 79 8 79 9 79 
0 79 1 79 2 79 3 79 4 79 5 79 6 79 7 79 8 79 9 79 
0 79 1 79 2 79 3 79 4 79 5 79 6 79 7 79 8 79 9 79 
0 79 1 79 2 79 3 79 4 79 5 79 6 79 7 79 8 79 9 79 
0 79 1 79 2 79 3 79 4 79 5 79 6 79 7 79 8 79 9 79 
0 79 1 79 2 79 3 79 4 79 5 79 6 79 7 79 8 79 9 79 
0 79 1 79 2 79 3 79 4 79 5 79 6 79 7 79 8 79 9 79 
0 79 1 79 2 79 3 79 4 79 5 79 6 79 7 79 8 79 9 79 
0 79 1 79 2 79 3 79 4 79 5 79 6 79 7 79 8 79 9 79 
0 79 1 79 2 79 3 79 4 79 5 79 6 79 7 79 8 79 9 79 
0 79 1 79 2 79 3 79 4 79 5 79 6 79 7 79 8 79 9 79 
0 79 1 79 2 79 3 79 4 79 5 79 6 79 7 79 8 79 9 79 
0 79 1 79 2 79 3 79 4 79 5 79 6 79 7 79 8 79 9 79 
0 79 1 79 2 79 3 79 4 79 5 79 6 79 7 79 8 79 9 79 
0 79 1 79 2 79 3 79 4 79 5 79 6 79 7 79 8 79 9 79 
0 79 1 79 2 79 3 79 4 79 5 79 6 79 7 79 8 79 9 79 
0 79 1 79 2 79 3 79 4 79 5 79 6 79 7 79 8 79 9 79 
0 79 1 79 2 79 3 79 4 79 5 79 6 79 7 79 8 79 9 79 
0 79 1 79 2 79 3 79 4 79 5 79 6 79 7 79 8 79 9 79 
0 79 1 79 2 79 3 79 4 79 5 79 6 79 7 79 8 79 9 79 
0 79 1 79 2 79 3 79 4 79 5 79 6 79 7 79 8 79 9 79 
0 79 1 79 2 79 3 79 4 79 5 79 6 79 7 79 8 79 9 79 
0 79 1 79 2 79 3 79 4 79 5 79 6 79 7 79 8 79 9 79 
0 79 1 79 2 79 3 79 4 79 5 79 6 79 7 79 8 79 9 79 
0 79 1 79 2 79 3 79 4 79 5 79 6 79 7 79 8 79 9 79 
0 79 1 79 2 79 3 79 4 79 5 79 6 79 7 79 8 79 9 79 
0 79 1 79 2 79 3 79 4 79 5 79 6 79 7 79 8 79 9 79 
0 79 1 79 2 79 3 79 4 79 5 79 6 79 7 79 8 79 9 79 
0 79 1 79 2 79 3 79 4 79 5 79 6 79 7 79 8 79 9 79 
0 79 1 79 2 79 3 79 4 79 5 79 6 79 7 79 8 79 9 79 
0 79 1 79 2 79 3 79 4 79 5 79 6 79 7 79 8 79 9 79 
0 79 1 79 2 79 3 79 4 79 5 79 6 79 7 79 8 79 9 79 
0 79 1 79 2 79 3 79 4 79 5 79 6 79 7 79 8 79 9 79 
0 79 1 79 2 79 3 79 4 79 5 79 6 79 7 79 8 79 9 79 
0 79 1 79 2 79 3 79 4 79 5 79 6 79 7 79 8 79 9 79 
0 79 1 79 2 79 3 79 4 79 5 79 6 79 7 79 8 79 9 79 
0 79 1 79 2 79 3 79 4 79 5 79 6 79 7 79 8 79 9 79 
0 79 1 79 2 79 3 79 4 79 5 79 6 79 7 79 8 79 9 79 
0 79 1 79 2 79 3 79 4 79 5 79 6 79 7 79 8 79 9 79 
0 79 1 79 2 79 3 79 4 79 5 79 6 79 7 79 8 79 9 79 
0 79 1 79 2 79 3 79 4 79 5 79 6 79 7 79 8 79 9 79 
0 79 1 79 2 79 3 79 4 79 5 79 6 79 7 79 8 79 9 79 
0 79 1 79 2 79 3 79 4 79 5 79 6 79 7 79 8 79 9 79 
0 79 1 79 2 79 3 79 4 79 5 79 6 79 7 79 8 79 9 79 
0 79 1 79 2 79 3 79 4 79 5 79 6 79 7 79 8 79 9 79 
0 79 1 79 2 79 3 79 4 79 5 79 6 79 7 79 8 79 9 79 
0 79 1 79 2 79 3 79 4 79 5 79 6 79 7 79 8 79 9 79 
0 79 1 79 2 79 3 79 4 79 5 79 6 79 7 79 8 79 9 79 
0 79 1 79 2 79 3 79 4 79 5 79 6 79 7 79 8 79 9 79 
0 79 1 79 2 79 3 79 4 79 5 79 6 79 7 79 8 79 9 79 
0 79 1 79 2 79 3 79 4 79 5 79 6 79 7 79 8 79 9 79 
0 79 1 79 2 79 3 79 4 79 5 79 6 79 7 79 8 79 9 79 
0 79 1 79 2 79 3 79 4 79 5 79 6 79 7 79 8 79 9 79 
0 79 1 79 2 79 3 79 4 79 5 79 6 79 7 79 8 79 9 79 
0 79 1 79 2 79 3 79 4 79 5 79 6 79 7 79 8 79 9 79 
0 79 1 79 2 79 3 79 4 79 5 79 6 79 7 79 8 79 9 79 
0 79 1 79 2 79 3 79 4 79 5 79 6 79 7 79 8 79 9 79 
0 79 1 79 2 79 3 79 4 79 5 79 6 79 7 79 8 79 9 79 
0 79 1 79 2 79 3 79 4 79 5 79 6 79 7 79 8 79 9 79 
0 79 1 79 2 79 3 79 4 79 5 79 6 79 7 79 8 79 9 79 
0 79 1 79 2 79 3 79 4 79 5 79 6 79 7 79 8 79 9 79 
0 79 1 79 2 79 3 79 4 79 5 79 6 79 7 79 8 79 9 79 
0 79 1 79 2 79 3 79 4 79 5 79 6 79 7 79 8 79 9 79 
0 79 1 79 2 79 3 79 4 79 5 79 6 79 7 79 8 79 9 79 
0 79 1 79 2 79 3 79 4 79 5 79 6 79 7 79 8 79 9 79 
0 79 1 79 2 79 3 79 4 79 5 79 6 79 7 79 8 79 9 79 
0 79 1 79 2 79 3 79 4 79 5 79 6 79 7 79 8 79 9 79 
0 79 1 79 2 79 3 79 4 79 5 79 6 79 7 79 8 79 9 79 
0 79 1 79 2 79 3 79 4 79 5 79 6 79 7 79 8 79 9 79 
0 79 1 79 2 79 3 79 4 79 5 79 6 79 7 79 8 79 9 79 
0 79 1 79 2 79 3 79 4 79 5 79 6 79 7 79 8 79 9 79 
0 79 1 79 2 79 3 79 4 79 5 79 6 79 7 79 8 79 9 79 
0 79 1 79 2 79 3 79 4 79 5 79 6 79 7 79 8 79 9 79 
0 79 1 79 2 79 3 79 4 79 5 79 6 79 7 79 8 79 9 79 
0 79 1 79 2 79 3 79 4 79 5 79 6 79 7 79 8 79 9 79 
0 79 1 79 2 79 3 79 4 79 5 79 6 79 7 79 8 79 9 79 
0 79 1 79 2 79 3 79 4 79 5 79 6 79 7 79 8 79 9 79 
0 79 1 79 2 79 3 79 4 79 5 79 6 79 7 79 8 79 9 79 
0 79 1 79 2 79 3 79 4 79 5 79 6 79 7 79 8 79 9 79 
0 79 1 79 2 79 3 79 4 79 5 79 6 79 7 79 8 79 9 79 
0 79 1 79 2 79 3 79 4 79 5 79 6 79 7 79 8 79 9 79 
0 79 1 79 2 79 3 79 4 79 5 79 6 79 7 79 8 79 9 79 
0 79 1 79 2 79 3 79 4 79 5 79 6 79 7 79 8 79 9 79 
0 79 1 79 2 79 3 79 4 79 5 79 6 79 7 79 8 79 9 79 
0 79 1 79 2 79 3 79 4 79 5 79 6 79 7 79 8 79 9 79 
0 79 1 79 2 79 3 79 4 79 5 79 6 79 7 79 8 79 9 79 
0 79 1 79 2 79 3 79 4 79 5 79 6 79 7 79 8 79 9 79 
0 79 1 79 2 79 3 79 4 79 5 79 6 79 7 79 8 79 9 79 
0 79 1 79 2 79 3 79 4 79 5 79 6 79 7 79 8 79 9 79 
0 79 1 79 2 79 3 79 4 79 5 79 6 79 7 79 8 79 9 79 
0 79 1 79 2 79 3 79 4 79 5 79 6 79 7 79 8 79 9 79 
0 79 1 79 2 79 3 79 4 79 5 79 6 79 7 79 8 79 9 79 
0 79 1 79 2 79 3 79 4 79 5 79 6 79 7 79 8 79 9 79 
0 79 1 79 2 79 3 79 4 79 5 79 6 79 7 79 8 79 9 79 
0 79 1 79 2 79 3 79 4 79 5 79 6 79 7 79 8 79 9 79 
0 79 1 79 2 79 3 79 4 79 5 79 6 79 7 79 8 79 9 79 
0 79 1 79 2 79 3 79 4 79 5 79 6 79 7 79 8 79 9 79 
0 79 1 79 2 79 3 79 4 79 5 79 6 79 7 79 8 79 9 79 
0 79 1 79 2 79 3 79 4 79 5 79 6 79 7 79 8 79 9 79 
0 79 1 79 2 79 3 79 4 79 5 79 6 79 7 79 8 79 9 79 
0 79 1 79 2 79 3 79 4 79 5 79 6 79 7 79 8 79 9 79 
0 79 1 79 2 79 3 79 4 79 5 79 6 79 7 79 8 79 9 79 
0 79 1 79 2 79 3 79 4 79 5 79 6 79 7 79 8 79 9 79 
0 79 1 79 2 79 3 79 4 79 5 79 6 79 7 79 8 79 9 79 
0 79 1 79 2 79 3 79 4 79 5 79 6 79 7 79 8 79 9 79 
0 79 1 79 2 79 3 79 4 79 5 79 6 79 7 79 8 79 9 79 
0 79 1 79 2 79 3 79 4 79 5 79 6 79 7 79 8 79 9 79 
0 79 1 79 2 79 3 79 4 79 5 79 6 79 7 79 8 79 9 79 
0 79 1 79 2 79 3 79 4 79 5 79 6 79 7 79 8 79 9 79 
0 79 1 79 2 79 3 79 4 79 5 79 6 79 7 79 8 79 9 79 
0 79 1 79 2 79 3 79 4 79 5 79 6 79 7 79 8 79 9 79 
0 79 1 79 2 79 3 79 4 79 5 79 6 79 7 79 8 79 9 79 
0 79 1 79 2 79 3 79 4 79 5 79 6 79 7 79 8 79 9 79 
0 79 1 79 2 79 3 79 4 79 5 79 6 79 7 79 8 79 9 79 
0 79 1 79 2 79 3 79 4 79 5 79 6 79 7 79 8 79 9 79 
0 79 1 79 2 79 3 79 4 79 5 79 6 79 7 79 8 79 9 79 
0 79 1 79 2 79 3 79 4 79 5 79 6 79 7 79 8 79 9 79 
0 79 1 79 2 79 3 79 4 79 5 79 6 79 7 79 8 79 9 79 
0 79 1 79 2 79 3 79 4 79 5 79 6 79 7 79 8 79 9 79 
0 79 1 79 2 79 3 79 4 79 5 79 6 79 7 79 8 79 9 79 
0 79 1 79 2 79 3 79 4 79 5 79 6 79 7 79 8 79 9 79 
0 79 1 79 2 79 3 79 4 79 5 79 6 79 7 79 8 79 9 79 
0 79 1 79 2 79 3 79 4 79 5 79 6 79 7 79 8 79 9 79 
0 79 1 79 2 79 3 79 4 79 5 79 6 79 7 79 8 79 9 79 
0 79 1 79 2 79 3 79 4 79 5 79 6 79 7 79 8 79 9 79 
0 79 1 79 2 79 3 79 4 79 5 79 6 79 7 79 8 79 9 79 
0 79 1 79 2 79 3 79 4 79 5 79 6 79 7 79 8 79 9 79 
0 79 1 79 2 79 3 79 4 79 5 79 6 79 7 79 8 79 9 79 
0 79 1 79 2 79 3 79 4 79 5 79 6 79 7 79 8 79 9 79 
0 79 1 79 2 79 3 79 4 79 5 79 6 79 7 79 8 79 9 79 
0 79 1 79 2 79 3 79 4 79 5 79 6 79 7 79 8 79 9 79 
0 79 1 79 2 79 3 79 4 79 5 79 6 79 7 79 8 79 9 79 
0 79 1 79 2 79 3 79 4 79 5 79 6 79 7 79 8 79 9 79 
0 79 1 79 2 79 3 79 4 79 5 79 6 79 7 79 8 79 9 79 
0 79 1 79 2 79 3 79 4 79 5 79 6 79 7 79 8 79 9 79 
0 79 1 79 2 79 3 79 4 79 5 79 6 79 7 79 8 79 9 79 
0 79 1 79 2 79 3 79 4 79 5 79 6 79 7 79 8 79 9 79 
0 79 1 79 2 79 3 79 4 79 5 79 6 79 7 79 8 79 9 79 
0 79 1 79 2 79 3 79 4 79 5 79 6 79 7 79 8 79 9 79 
0 79 1 79 2 79 3 79 4 79 5 79 6 79 7 79 8 79 9 79 
0 79 1 79 2 79 3 79 4 79 5 79 6 79 7 79 8 79 9 79 
0 79 1 79 2 79 3 79 4 79 5 79 6 79 7 79 8 79 9 79 
0 79 1 79 2 79 3 79 4 79 5 79 6 79 7 79 8 79 9 79 
0 79 1 79 2 79 3 79 4 79 5 79 6 79 7 79 8 79 9 79 
0 79 1 79 2 79 3 79 4 79 5 79 6 79 7 79 8 79 9 79 
0 79 1 79 2 79 3 79 4 79 5 79 6 79 7 79 8 79 9 79 
0 79 1 79 2 79 3 79 4 79 5 79 6 79 7 79 8 79 9 79 
0 79 1 79 2 79 3 79 4 79 5 79 6 79 7 79 8 79 9 79 
0 79 1 79 2 79 3 79 4 79 5 79 6 79 7 79 8 79 9 79 
